p cnf 20 20
-2 -7 -8 0
-15 17 -6 0
-14 10 -1 0
-20 -18 5 0
4 7 16 0
15 17 13 0
-19 -20 12 0
-20 9 16 0
4 -18 10 0
9 -1 -13 0
-15 16 11 0
5 -15 -20 0
-18 9 -11 0
-5 -6 -16 0
15 -8 2 0
-10 3 -12 0
10 -16 4 0
-16 20 -9 0
-12 -14 16 0
-4 -1 -15 0
